************************************************************************
file with basedata            : n/a
initial value random generator: n/a
************************************************************************
projects                      :  1
jobs (incl. supersource/sink ):  122
horizon                       :  691
RESOURCES
  - renewable                 :  4   R
  - nonrenewable              :  0   N
  - doubly constrained        :  0   D
************************************************************************
PROJECT INFORMATION:
pronr.  #jobs rel.date duedate tardcost  MPM-Time
    1    120      0       90       53       90
************************************************************************
PRECEDENCE RELATIONS:
jobnr.    #modes  #successors   successors
   1        1          3           2   3   4
   2        1          3           5   9  15
   3        1          3           7  44  86
   4        1          3           6  10  11
   5        1          2          17  96
   6        1          3           8  12  19
   7        1          2          20  58
   8        1          3          13  52  80
   9        1          3          14  43  46
  10        1          3          16  18  37
  11        1          2          30  85
  12        1          3          38  51  57
  13        1          3          22  27  54
  14        1          3          24  25  26
  15        1          3          23  31  34
  16        1          1          45
  17        1          2          33  87
  18        1          3          29  32  40
  19        1          2          21  34
  20        1          2          69  83
  21        1          1          79
  22        1          3          28  39  49
  23        1          2          36  68
  24        1          2          56  78
  25        1          1          75
  26        1          1          60
  27        1          1          94
  28        1          1          47
  29        1          2          41  91
  30        1          1          71
  31        1          1         112
  32        1          2          35  51
  33        1          1          55
  34        1          3          61  70  98
  35        1          1          42
  36        1          2          53  82
  37        1          2          48 107
  38        1          1          59
  39        1          1          84
  40        1          1          87
  41        1          2         100 101
  42        1          1          49
  43        1          1          48
  44        1          1          77
  45        1          1         105
  46        1          2          79 115
  47        1          1          95
  48        1          1          91
  49        1          2          50  67
  50        1          2          66  94
  51        1          1          82
  52        1          2          56  63
  53        1          1         114
  54        1          3          95  97 111
  55        1          1          80
  56        1          2          65  74
  57        1          1          62
  58        1          1          73
  59        1          1          82
  60        1          1          93
  61        1          2          64  73
  62        1          1         104
  63        1          1          99
  64        1          1         111
  65        1          1         102
  66        1          1         110
  67        1          2          72  99
  68        1          2          76  81
  69        1          2          80  97
  70        1          1         106
  71        1          1          91
  72        1          2          90 103
  73        1          3          90  92 121
  74        1          1          75
  75        1          1         101
  76        1          1          99
  77        1          1          81
  78        1          1          89
  79        1          1         104
  80        1          1          88
  81        1          1          96
  82        1          1         118
  83        1          1         117
  84        1          1          92
  85        1          1         115
  86        1          1         108
  87        1          1         115
  88        1          1         113
  89        1          1          93
  90        1          1         112
  91        1          1          98
  92        1          1         100
  93        1          1         108
  94        1          1         117
  95        1          1         119
  96        1          2         103 110
  97        1          2         106 109
  98        1          1         106
  99        1          1         118
 100        1          3         108 112 120
 101        1          1         116
 102        1          1         117
 103        1          1         109
 104        1          2         110 120
 105        1          1         109
 106        1          1         121
 107        1          1         113
 108        1          1         111
 109        1          1         121
 110        1          1         114
 111        1          1         114
 112        1          1         113
 113        1          1         116
 114        1          1         119
 115        1          1         116
 116        1          1         119
 117        1          1         118
 118        1          1         120
 119        1          1         122
 120        1          1         122
 121        1          1         122
 122        1          0        
************************************************************************
REQUESTS/DURATIONS:
jobnr. mode duration  R 1  R 2  R 3  R 4
------------------------------------------------------------------------
  1      1     0    
  2      1     4      10  10  10  10
                       6   6   6   6
                       9   9   9   9
                       3   3   3   3
  3      1    10       0   3   3   3   3   3   3   3   3   3
                       0   7   7   7   7   7   7   7   7   7
                       0   7   7   7   7   7   7   7   7   7
                       0   9   9   9   9   9   9   9   9   9
  4      1     5       3   3   3   3   3
                       9   9   9   9   9
                       4   4   4   4   4
                       8   8   8   8   8
  5      1     4      10   0  10  10
                       2   0   2   2
                       8   0   8   8
                       3   0   3   3
  6      1     3       7   7   7
                      10  10  10
                       2   2   2
                       8   8   8
  7      1     6       5   5   5   5   5   5
                       3   3   3   3   3   3
                       7   7   7   7   7   7
                       8   8   8   8   8   8
  8      1     2      10  10
                       8   8
                      10  10
                       1   1
  9      1     5       3   3   0   3   3
                       9   9   0   9   9
                       7   7   0   7   7
                       4   4   0   4   4
 10      1     4       3   3   3   3
                       6   6   6   6
                       7   7   7   7
                       7   7   7   7
 11      1     9      10  10  10  10  10  10  10  10  10
                       1   1   1   1   1   1   1   1   1
                      10  10  10  10  10  10  10  10  10
                       1   1   1   1   1   1   1   1   1
 12      1     9       2   2   2   2   2   2   2   2   2
                       5   5   5   5   5   5   5   5   5
                       2   2   2   2   2   2   2   2   2
                       2   2   2   2   2   2   2   2   2
 13      1     2       2   2
                      10  10
                       5   5
                       1   1
 14      1     3       3   3   3
                       1   1   1
                       4   4   4
                       1   1   1
 15      1    10       9   9   9   9   9   9   9   0   9   9
                       7   7   7   7   7   7   7   0   7   7
                       4   4   4   4   4   4   4   0   4   4
                       7   7   7   7   7   7   7   0   7   7
 16      1    10       1   1   1   1   1   1   1   1   1   1
                       5   5   5   5   5   5   5   5   5   5
                       4   4   4   4   4   4   4   4   4   4
                       4   4   4   4   4   4   4   4   4   4
 17      1     1       4
                       9
                       7
                      10
 18      1     9       5   5   0   5   5   5   5   5   5
                       8   8   0   8   8   8   8   8   8
                       6   6   0   6   6   6   6   6   6
                      10  10   0  10  10  10  10  10  10
 19      1     5       7   7   7   7   0
                       3   3   3   3   0
                       1   1   1   1   0
                       5   5   5   5   0
 20      1     9       3   3   3   3   3   3   3   3   3
                      10  10  10  10  10  10  10  10  10
                       2   2   2   2   2   2   2   2   2
                       9   9   9   9   9   9   9   9   9
 21      1     7       1   1   1   1   1   1   1
                       4   4   4   4   4   4   4
                       2   2   2   2   2   2   2
                      10  10  10  10  10  10  10
 22      1     8       5   5   5   5   5   5   5   0
                       7   7   7   7   7   7   7   0
                       7   7   7   7   7   7   7   0
                       2   2   2   2   2   2   2   0
 23      1     1       5
                       7
                       5
                       9
 24      1    10       6   6   6   6   6   0   6   6   6   6
                       1   1   1   1   1   0   1   1   1   1
                      10  10  10  10  10   0  10  10  10  10
                       7   7   7   7   7   0   7   7   7   7
 25      1     9       5   5   5   5   5   0   5   5   0
                      10  10  10  10  10   0  10  10   0
                       7   7   7   7   7   0   7   7   0
                       1   1   1   1   1   0   1   1   0
 26      1     7       5   5   5   5   5   0   5
                       2   2   2   2   2   0   2
                      10  10  10  10  10   0  10
                       5   5   5   5   5   0   5
 27      1     8       3   3   3   3   3   3   3   3
                       7   7   7   7   7   7   7   7
                       4   4   4   4   4   4   4   4
                       5   5   5   5   5   5   5   5
 28      1     3       2   2   2
                       6   6   6
                       3   3   3
                       2   2   2
 29      1     7       0   6   6   0   6   6   6
                       0  10  10   0  10  10  10
                       0   8   8   0   8   8   8
                       0   8   8   0   8   8   8
 30      1     5       3   3   3   3   0
                       2   2   2   2   0
                       8   8   8   8   0
                       5   5   5   5   0
 31      1     4       9   9   0   9
                       7   7   0   7
                       8   8   0   8
                       5   5   0   5
 32      1    10       9   9   9   0   9   9   9   9   9   9
                       8   8   8   0   8   8   8   8   8   8
                       5   5   5   0   5   5   5   5   5   5
                       3   3   3   0   3   3   3   3   3   3
 33      1     8       8   8   8   8   8   8   8   8
                      10  10  10  10  10  10  10  10
                       8   8   8   8   8   8   8   8
                       2   2   2   2   2   2   2   2
 34      1     7       5   5   5   5   5   5   5
                       7   7   7   7   7   7   7
                      10  10  10  10  10  10  10
                       2   2   2   2   2   2   2
 35      1    10       4   4   4   0   4   4   4   4   4   4
                       2   2   2   0   2   2   2   2   2   2
                       7   7   7   0   7   7   7   7   7   7
                       8   8   8   0   8   8   8   8   8   8
 36      1     5       7   7   7   7   7
                       1   1   1   1   1
                       7   7   7   7   7
                       3   3   3   3   3
 37      1    10       5   5   5   5   5   5   0   5   5   0
                       6   6   6   6   6   6   0   6   6   0
                      10  10  10  10  10  10   0  10  10   0
                       4   4   4   4   4   4   0   4   4   0
 38      1     6       1   1   1   1   1   1
                       5   5   5   5   5   5
                       4   4   4   4   4   4
                       5   5   5   5   5   5
 39      1     7       3   3   3   3   3   0   0
                      10  10  10  10  10   0   0
                       2   2   2   2   2   0   0
                       8   8   8   8   8   0   0
 40      1     1       7
                       8
                       8
                       8
 41      1     9       0  10  10  10  10  10  10  10  10
                       0   3   3   3   3   3   3   3   3
                       0   7   7   7   7   7   7   7   7
                       0   8   8   8   8   8   8   8   8
 42      1     4       4   4   4   4
                       5   5   5   5
                       8   8   8   8
                       3   3   3   3
 43      1     5       5   5   5   5   5
                       3   3   3   3   3
                       8   8   8   8   8
                      10  10  10  10  10
 44      1     9       4   4   4   4   4   4   4   4   4
                       1   1   1   1   1   1   1   1   1
                       8   8   8   8   8   8   8   8   8
                       8   8   8   8   8   8   8   8   8
 45      1     5       0   4   0   4   4
                       0   8   0   8   8
                       0   8   0   8   8
                       0   4   0   4   4
 46      1     9       9   9   9   9   9   9   0   9   9
                       1   1   1   1   1   1   0   1   1
                       9   9   9   9   9   9   0   9   9
                       9   9   9   9   9   9   0   9   9
 47      1     5       5   5   5   5   5
                       1   1   1   1   1
                       8   8   8   8   8
                       4   4   4   4   4
 48      1     9       5   5   5   5   0   5   5   5   5
                       8   8   8   8   0   8   8   8   8
                       2   2   2   2   0   2   2   2   2
                       4   4   4   4   0   4   4   4   4
 49      1     2       7   7
                       5   5
                       5   5
                       9   9
 50      1     8       3   3   3   3   3   3   3   0
                       1   1   1   1   1   1   1   0
                       4   4   4   4   4   4   4   0
                      10  10  10  10  10  10  10   0
 51      1     5       0   3   3   3   3
                       0   4   4   4   4
                       0   8   8   8   8
                       0   9   9   9   9
 52      1     9       3   3   3   3   3   3   3   3   3
                       3   3   3   3   3   3   3   3   3
                      10  10  10  10  10  10  10  10  10
                       7   7   7   7   7   7   7   7   7
 53      1     6       5   5   5   5   5   5
                       4   4   4   4   4   4
                       2   2   2   2   2   2
                       8   8   8   8   8   8
 54      1     2       9   9
                       6   6
                       5   5
                      10  10
 55      1     9      10  10  10  10   0  10  10  10  10
                       3   3   3   3   0   3   3   3   3
                       2   2   2   2   0   2   2   2   2
                       2   2   2   2   0   2   2   2   2
 56      1     2       5   5
                       7   7
                       2   2
                       6   6
 57      1     4       3   3   3   3
                       7   7   7   7
                       7   7   7   7
                       3   3   3   3
 58      1     9       5   0   5   5   5   5   5   5   5
                       2   0   2   2   2   2   2   2   2
                       7   0   7   7   7   7   7   7   7
                       5   0   5   5   5   5   5   5   5
 59      1     5       3   3   3   3   3
                       1   1   1   1   1
                       1   1   1   1   1
                       4   4   4   4   4
 60      1     3       3   3   3
                       3   3   3
                       8   8   8
                       3   3   3
 61      1     6       7   7   7   7   0   7
                       6   6   6   6   0   6
                       9   9   9   9   0   9
                       3   3   3   3   0   3
 62      1     3       4   4   0
                      10  10   0
                       6   6   0
                       2   2   0
 63      1     1       9
                      10
                       2
                       9
 64      1     4       3   3   3   3
                      10  10  10  10
                      10  10  10  10
                       4   4   4   4
 65      1     4       4   4   4   4
                       2   2   2   2
                      10  10  10  10
                       5   5   5   5
 66      1    10       8   8   8   8   0   8   8   8   8   8
                       5   5   5   5   0   5   5   5   5   5
                       5   5   5   5   0   5   5   5   5   5
                       2   2   2   2   0   2   2   2   2   2
 67      1     8       0   6   6   6   6   6   6   6
                       0   9   9   9   9   9   9   9
                       0   2   2   2   2   2   2   2
                       0   5   5   5   5   5   5   5
 68      1     5       3   3   3   3   0
                       6   6   6   6   0
                       2   2   2   2   0
                       2   2   2   2   0
 69      1     9       4   4   4   4   4   4   4   4   4
                      10  10  10  10  10  10  10  10  10
                       6   6   6   6   6   6   6   6   6
                       8   8   8   8   8   8   8   8   8
 70      1     7       2   0   2   2   2   2   2
                       3   0   3   3   3   3   3
                       5   0   5   5   5   5   5
                       5   0   5   5   5   5   5
 71      1     8       6   6   6   6   6   6   6   6
                       5   5   5   5   5   5   5   5
                       5   5   5   5   5   5   5   5
                       3   3   3   3   3   3   3   3
 72      1     7       1   0   1   0   1   0   0
                       6   0   6   0   6   0   0
                       3   0   3   0   3   0   0
                       4   0   4   0   4   0   0
 73      1     5       4   4   4   4   4
                       5   5   5   5   5
                       1   1   1   1   1
                       7   7   7   7   7
 74      1     8       9   9   9   9   9   9   9   9
                       2   2   2   2   2   2   2   2
                       2   2   2   2   2   2   2   2
                       1   1   1   1   1   1   1   1
 75      1     4       5   5   5   5
                       7   7   7   7
                       7   7   7   7
                       6   6   6   6
 76      1     5       5   5   5   0   5
                       2   2   2   0   2
                       9   9   9   0   9
                       7   7   7   0   7
 77      1     5      10  10   0  10  10
                       2   2   0   2   2
                       9   9   0   9   9
                      10  10   0  10  10
 78      1     6       6   6   6   6   0   6
                       6   6   6   6   0   6
                       6   6   6   6   0   6
                       4   4   4   4   0   4
 79      1     1       5
                       4
                      10
                       2
 80      1     1       7
                       2
                       1
                       9
 81      1     6       7   7   7   7   7   7
                      10  10  10  10  10  10
                       8   8   8   8   8   8
                       1   1   1   1   1   1
 82      1     4       0   1   1   1
                       0   9   9   9
                       0   9   9   9
                       0   5   5   5
 83      1     8       2   2   2   2   2   2   2   2
                       6   6   6   6   6   6   6   6
                      10  10  10  10  10  10  10  10
                       1   1   1   1   1   1   1   1
 84      1     1       7
                       9
                       3
                       1
 85      1     3       2   0   0
                       3   0   0
                       8   0   0
                       5   0   0
 86      1     6       7   7   0   7   7   7
                       8   8   0   8   8   8
                       7   7   0   7   7   7
                       4   4   0   4   4   4
 87      1     8       8   8   8   8   8   8   8   8
                       3   3   3   3   3   3   3   3
                      10  10  10  10  10  10  10  10
                       2   2   2   2   2   2   2   2
 88      1     5       2   2   2   2   2
                       7   7   7   7   7
                       5   5   5   5   5
                       2   2   2   2   2
 89      1     6       3   3   3   3   0   0
                       5   5   5   5   0   0
                       2   2   2   2   0   0
                       1   1   1   1   0   0
 90      1     7       5   5   5   5   5   5   5
                       5   5   5   5   5   5   5
                       4   4   4   4   4   4   4
                       3   3   3   3   3   3   3
 91      1     6       9   9   0   9   9   9
                       4   4   0   4   4   4
                       6   6   0   6   6   6
                       4   4   0   4   4   4
 92      1     7       2   2   2   2   2   2   2
                       5   5   5   5   5   5   5
                       4   4   4   4   4   4   4
                       5   5   5   5   5   5   5
 93      1     2       0   8
                       0   1
                       0   6
                       0   7
 94      1     2       4   0
                       3   0
                       1   0
                       7   0
 95      1     7       2   2   2   0   2   2   2
                       3   3   3   0   3   3   3
                       8   8   8   0   8   8   8
                       6   6   6   0   6   6   6
 96      1     8       1   1   1   1   1   1   1   1
                       1   1   1   1   1   1   1   1
                       3   3   3   3   3   3   3   3
                       5   5   5   5   5   5   5   5
 97      1     8       1   1   1   1   0   0   1   0
                       3   3   3   3   0   0   3   0
                       7   7   7   7   0   0   7   0
                       2   2   2   2   0   0   2   0
 98      1     8       7   7   7   7   7   7   7   0
                       9   9   9   9   9   9   9   0
                       7   7   7   7   7   7   7   0
                       1   1   1   1   1   1   1   0
 99      1     9       1   1   1   1   0   1   1   1   1
                       6   6   6   6   0   6   6   6   6
                       1   1   1   1   0   1   1   1   1
                       3   3   3   3   0   3   3   3   3
100      1     6       1   1   1   1   1   1
                       9   9   9   9   9   9
                       7   7   7   7   7   7
                       6   6   6   6   6   6
101      1     6       5   5   5   5   5   5
                       5   5   5   5   5   5
                       4   4   4   4   4   4
                       4   4   4   4   4   4
102      1     7       6   6   6   6   0   6   6
                       8   8   8   8   0   8   8
                       2   2   2   2   0   2   2
                       9   9   9   9   0   9   9
103      1     3       2   2   2
                      10  10  10
                       5   5   5
                       5   5   5
104      1     2       2   2
                       3   3
                       8   8
                       3   3
105      1     9       6   0   6   6   6   6   6   0   0
                       7   0   7   7   7   7   7   0   0
                       7   0   7   7   7   7   7   0   0
                       2   0   2   2   2   2   2   0   0
106      1     5       0   3   3   3   0
                       0  10  10  10   0
                       0   5   5   5   0
                       0   3   3   3   0
107      1     9       1   1   1   1   1   1   1   1   1
                       4   4   4   4   4   4   4   4   4
                       5   5   5   5   5   5   5   5   5
                       8   8   8   8   8   8   8   8   8
108      1     7       8   8   8   8   0   8   0
                       7   7   7   7   0   7   0
                      10  10  10  10   0  10   0
                       9   9   9   9   0   9   0
109      1     2       8   8
                       8   8
                       9   9
                       4   4
110      1     4       6   6   6   6
                       2   2   2   2
                       1   1   1   1
                      10  10  10  10
111      1     6       3   0   3   3   3   3
                       7   0   7   7   7   7
                       5   0   5   5   5   5
                       1   0   1   1   1   1
112      1     6       4   0   4   4   4   4
                       2   0   2   2   2   2
                       9   0   9   9   9   9
                       4   0   4   4   4   4
113      1     7       9   9   9   9   9   9   9
                       5   5   5   5   5   5   5
                       3   3   3   3   3   3   3
                       8   8   8   8   8   8   8
114      1     7       3   3   0   3   3   3   3
                       1   1   0   1   1   1   1
                       3   3   0   3   3   3   3
                       6   6   0   6   6   6   6
115      1     1       0
                       0
                       0
                       0
116      1     5       8   8   8   8   8
                       7   7   7   7   7
                      10  10  10  10  10
                       4   4   4   4   4
117      1     4       1   1   1   1
                       5   5   5   5
                       7   7   7   7
                       1   1   1   1
118      1     1       3
                       4
                      10
                       4
119      1     6       1   0   1   1   1   1
                       3   0   3   3   3   3
                       9   0   9   9   9   9
                       8   0   8   8   8   8
120      1     7       0   8   8   8   8   8   8
                       0   8   8   8   8   8   8
                       0   9   9   9   9   9   9
                       0   3   3   3   3   3   3
121      1     1       5
                       6
                       9
                       4
122      1     0    
************************************************************************
RESOURCEAVAILABILITIES:
  R 1  R 2  R 3  R 4

  21  21  21  21  21  21  21  21   0  21   0  21  21  21  21  21  21   0  21  21  21  21  21   0   0  21  21  21  21   0  21   0  21  21  21  21  21  21  21   0  21  21  21   0  21  21  21  21  21  21  21  21  21  21   0  21  21  21   0  21  21  21  21  21  21  21  21  21  21  21  21  21  21  21  21  21  21  21  21  21  21  21  21  21  21  21  21  21  21  21  21  21  21  21  21  21  21   0  21   0  21  21  21  21  21  21  21   0   0  21   0  21  21  21  21  21  21  21  21  21  21  21  21  21  21  21  21  21   0   0  21  21  21  21  21  21  21  21  21  21  21  21  21  21  21   0  21  21   0  21  21  21  21  21   0  21  21   0  21   0  21  21  21  21  21  21  21   0  21  21   0  21  21  21  21  21  21  21  21  21  21  21  21  21  21  21  21  21  21  21  21  21   0  21  21  21   0  21  21  21  21  21   0  21  21  21  21  21  21  21  21  21  21  21  21  21  21  21   0  21  21  21   0  21  21  21  21  21  21  21  21  21  21  21  21   0  21  21  21  21  21  21  21  21  21  21   0  21   0  21  21  21  21  21   0  21  21  21  21  21  21   0  21  21  21  21  21  21  21  21  21  21  21  21  21  21  21  21  21  21  21  21  21  21  21  21  21  21  21  21  21  21  21  21  21   0  21  21  21  21  21  21  21  21  21  21  21  21  21  21  21  21  21  21  21  21  21  21  21  21  21  21  21   0  21   0  21  21  21   0  21  21  21  21  21  21  21  21  21  21   0  21  21  21  21  21   0  21  21  21   0  21  21  21  21  21  21  21  21  21  21  21   0  21  21  21  21  21  21   0  21  21  21  21   0  21   0  21  21  21  21  21   0  21  21  21  21  21   0  21  21  21  21  21  21  21  21  21  21   0  21  21  21  21  21  21  21  21  21  21  21  21  21   0  21  21  21  21  21  21  21  21  21  21  21   0  21   0  21   0  21  21  21  21  21  21  21  21  21  21  21  21  21  21  21  21  21  21  21  21  21  21  21  21  21  21  21  21  21  21  21  21  21  21  21  21  21  21  21  21  21   0  21  21  21  21  21  21  21  21  21  21  21  21  21  21  21  21  21   0  21  21  21  21  21  21  21  21   0  21  21   0  21  21  21  21  21  21  21  21  21  21  21  21  21  21  21  21  21  21  21  21  21  21  21  21  21  21  21  21  21  21  21  21  21  21  21  21   0  21  21  21  21  21  21  21  21  21  21  21   0  21   0  21  21  21  21  21  21  21  21  21  21  21  21   0  21  21  21  21  21  21  21  21   0  21  21  21  21   0  21  21  21  21   0   0  21  21  21  21  21  21   0  21  21  21  21  21  21  21  21  21  21   0  21  21  21  21  21  21  21  21  21  21  21  21  21  21  21  21  21  21  21  21  21  21  21  21  21  21  21  21  21  21  21  21  21  21  21  21  21  21   0  21  21  21  21  21  21  21  21  21  21  21  21  21  21  21  21  21  21  21  21  21  21  21   0  21  21  21  21  21  21  21  21  21  21  21  21  21  21  21  21   0   0  21  21  21  21  21  21

  22  22  22  22  22  22  22  22   0  22   0  22  22  22  22  22  22   0  22  22  22  22  22   0   0  22  22  22  22   0  22   0  22  22  22  22  22  22  22   0  22  22  22   0  22  22  22  22  22  22  22  22  22  22   0  22  22  22   0  22  22  22  22  22  22  22  22  22  22  22  22  22  22  22  22  22  22  22  22  22  22  22  22  22  22  22  22  22  22  22  22  22  22  22  22  22  22   0  22   0  22  22  22  22  22  22  22   0   0  22   0  22  22  22  22  22  22  22  22  22  22  22  22  22  22  22  22  22   0   0  22  22  22  22  22  22  22  22  22  22  22  22  22  22  22   0  22  22   0  22  22  22  22  22   0  22  22   0  22   0  22  22  22  22  22  22  22   0  22  22   0  22  22  22  22  22  22  22  22  22  22  22  22  22  22  22  22  22  22  22  22  22   0  22  22  22   0  22  22  22  22  22   0  22  22  22  22  22  22  22  22  22  22  22  22  22  22  22   0  22  22  22   0  22  22  22  22  22  22  22  22  22  22  22  22   0  22  22  22  22  22  22  22  22  22  22   0  22   0  22  22  22  22  22   0  22  22  22  22  22  22   0  22  22  22  22  22  22  22  22  22  22  22  22  22  22  22  22  22  22  22  22  22  22  22  22  22  22  22  22  22  22  22  22  22   0  22  22  22  22  22  22  22  22  22  22  22  22  22  22  22  22  22  22  22  22  22  22  22  22  22  22  22   0  22   0  22  22  22   0  22  22  22  22  22  22  22  22  22  22   0  22  22  22  22  22   0  22  22  22   0  22  22  22  22  22  22  22  22  22  22  22   0  22  22  22  22  22  22   0  22  22  22  22   0  22   0  22  22  22  22  22   0  22  22  22  22  22   0  22  22  22  22  22  22  22  22  22  22   0  22  22  22  22  22  22  22  22  22  22  22  22  22   0  22  22  22  22  22  22  22  22  22  22  22   0  22   0  22   0  22  22  22  22  22  22  22  22  22  22  22  22  22  22  22  22  22  22  22  22  22  22  22  22  22  22  22  22  22  22  22  22  22  22  22  22  22  22  22  22  22   0  22  22  22  22  22  22  22  22  22  22  22  22  22  22  22  22  22   0  22  22  22  22  22  22  22  22   0  22  22   0  22  22  22  22  22  22  22  22  22  22  22  22  22  22  22  22  22  22  22  22  22  22  22  22  22  22  22  22  22  22  22  22  22  22  22  22   0  22  22  22  22  22  22  22  22  22  22  22   0  22   0  22  22  22  22  22  22  22  22  22  22  22  22   0  22  22  22  22  22  22  22  22   0  22  22  22  22   0  22  22  22  22   0   0  22  22  22  22  22  22   0  22  22  22  22  22  22  22  22  22  22   0  22  22  22  22  22  22  22  22  22  22  22  22  22  22  22  22  22  22  22  22  22  22  22  22  22  22  22  22  22  22  22  22  22  22  22  22  22  22   0  22  22  22  22  22  22  22  22  22  22  22  22  22  22  22  22  22  22  22  22  22  22  22   0  22  22  22  22  22  22  22  22  22  22  22  22  22  22  22  22   0   0  22  22  22  22  22  22

  24  24  24  24  24  24  24  24   0  24   0  24  24  24  24  24  24   0  24  24  24  24  24   0   0  24  24  24  24   0  24   0  24  24  24  24  24  24  24   0  24  24  24   0  24  24  24  24  24  24  24  24  24  24   0  24  24  24   0  24  24  24  24  24  24  24  24  24  24  24  24  24  24  24  24  24  24  24  24  24  24  24  24  24  24  24  24  24  24  24  24  24  24  24  24  24  24   0  24   0  24  24  24  24  24  24  24   0   0  24   0  24  24  24  24  24  24  24  24  24  24  24  24  24  24  24  24  24   0   0  24  24  24  24  24  24  24  24  24  24  24  24  24  24  24   0  24  24   0  24  24  24  24  24   0  24  24   0  24   0  24  24  24  24  24  24  24   0  24  24   0  24  24  24  24  24  24  24  24  24  24  24  24  24  24  24  24  24  24  24  24  24   0  24  24  24   0  24  24  24  24  24   0  24  24  24  24  24  24  24  24  24  24  24  24  24  24  24   0  24  24  24   0  24  24  24  24  24  24  24  24  24  24  24  24   0  24  24  24  24  24  24  24  24  24  24   0  24   0  24  24  24  24  24   0  24  24  24  24  24  24   0  24  24  24  24  24  24  24  24  24  24  24  24  24  24  24  24  24  24  24  24  24  24  24  24  24  24  24  24  24  24  24  24  24   0  24  24  24  24  24  24  24  24  24  24  24  24  24  24  24  24  24  24  24  24  24  24  24  24  24  24  24   0  24   0  24  24  24   0  24  24  24  24  24  24  24  24  24  24   0  24  24  24  24  24   0  24  24  24   0  24  24  24  24  24  24  24  24  24  24  24   0  24  24  24  24  24  24   0  24  24  24  24   0  24   0  24  24  24  24  24   0  24  24  24  24  24   0  24  24  24  24  24  24  24  24  24  24   0  24  24  24  24  24  24  24  24  24  24  24  24  24   0  24  24  24  24  24  24  24  24  24  24  24   0  24   0  24   0  24  24  24  24  24  24  24  24  24  24  24  24  24  24  24  24  24  24  24  24  24  24  24  24  24  24  24  24  24  24  24  24  24  24  24  24  24  24  24  24  24   0  24  24  24  24  24  24  24  24  24  24  24  24  24  24  24  24  24   0  24  24  24  24  24  24  24  24   0  24  24   0  24  24  24  24  24  24  24  24  24  24  24  24  24  24  24  24  24  24  24  24  24  24  24  24  24  24  24  24  24  24  24  24  24  24  24  24   0  24  24  24  24  24  24  24  24  24  24  24   0  24   0  24  24  24  24  24  24  24  24  24  24  24  24   0  24  24  24  24  24  24  24  24   0  24  24  24  24   0  24  24  24  24   0   0  24  24  24  24  24  24   0  24  24  24  24  24  24  24  24  24  24   0  24  24  24  24  24  24  24  24  24  24  24  24  24  24  24  24  24  24  24  24  24  24  24  24  24  24  24  24  24  24  24  24  24  24  24  24  24  24   0  24  24  24  24  24  24  24  24  24  24  24  24  24  24  24  24  24  24  24  24  24  24  24   0  24  24  24  24  24  24  24  24  24  24  24  24  24  24  24  24   0   0  24  24  24  24  24  24

  21  21  21  21  21  21  21  21   0  21   0  21  21  21  21  21  21   0  21  21  21  21  21   0   0  21  21  21  21   0  21   0  21  21  21  21  21  21  21   0  21  21  21   0  21  21  21  21  21  21  21  21  21  21   0  21  21  21   0  21  21  21  21  21  21  21  21  21  21  21  21  21  21  21  21  21  21  21  21  21  21  21  21  21  21  21  21  21  21  21  21  21  21  21  21  21  21   0  21   0  21  21  21  21  21  21  21   0   0  21   0  21  21  21  21  21  21  21  21  21  21  21  21  21  21  21  21  21   0   0  21  21  21  21  21  21  21  21  21  21  21  21  21  21  21   0  21  21   0  21  21  21  21  21   0  21  21   0  21   0  21  21  21  21  21  21  21   0  21  21   0  21  21  21  21  21  21  21  21  21  21  21  21  21  21  21  21  21  21  21  21  21   0  21  21  21   0  21  21  21  21  21   0  21  21  21  21  21  21  21  21  21  21  21  21  21  21  21   0  21  21  21   0  21  21  21  21  21  21  21  21  21  21  21  21   0  21  21  21  21  21  21  21  21  21  21   0  21   0  21  21  21  21  21   0  21  21  21  21  21  21   0  21  21  21  21  21  21  21  21  21  21  21  21  21  21  21  21  21  21  21  21  21  21  21  21  21  21  21  21  21  21  21  21  21   0  21  21  21  21  21  21  21  21  21  21  21  21  21  21  21  21  21  21  21  21  21  21  21  21  21  21  21   0  21   0  21  21  21   0  21  21  21  21  21  21  21  21  21  21   0  21  21  21  21  21   0  21  21  21   0  21  21  21  21  21  21  21  21  21  21  21   0  21  21  21  21  21  21   0  21  21  21  21   0  21   0  21  21  21  21  21   0  21  21  21  21  21   0  21  21  21  21  21  21  21  21  21  21   0  21  21  21  21  21  21  21  21  21  21  21  21  21   0  21  21  21  21  21  21  21  21  21  21  21   0  21   0  21   0  21  21  21  21  21  21  21  21  21  21  21  21  21  21  21  21  21  21  21  21  21  21  21  21  21  21  21  21  21  21  21  21  21  21  21  21  21  21  21  21  21   0  21  21  21  21  21  21  21  21  21  21  21  21  21  21  21  21  21   0  21  21  21  21  21  21  21  21   0  21  21   0  21  21  21  21  21  21  21  21  21  21  21  21  21  21  21  21  21  21  21  21  21  21  21  21  21  21  21  21  21  21  21  21  21  21  21  21   0  21  21  21  21  21  21  21  21  21  21  21   0  21   0  21  21  21  21  21  21  21  21  21  21  21  21   0  21  21  21  21  21  21  21  21   0  21  21  21  21   0  21  21  21  21   0   0  21  21  21  21  21  21   0  21  21  21  21  21  21  21  21  21  21   0  21  21  21  21  21  21  21  21  21  21  21  21  21  21  21  21  21  21  21  21  21  21  21  21  21  21  21  21  21  21  21  21  21  21  21  21  21  21   0  21  21  21  21  21  21  21  21  21  21  21  21  21  21  21  21  21  21  21  21  21  21  21   0  21  21  21  21  21  21  21  21  21  21  21  21  21  21  21  21   0   0  21  21  21  21  21  21

************************************************************************
